Gurobi 9.1.2 (linux64) logging started Fri Mar  4 09:38:10 2022

Gurobi Optimizer version 9.1.2 build v9.1.2rc0 (linux64)
Thread count: 12 physical cores, 24 logical processors, using up to 1 threads
Optimize a model with 9960 rows, 9960 columns and 101075 nonzeros
Model fingerprint: 0x77a18d84
Model has 96601 quadratic objective terms
Variable types: 9880 continuous, 80 integer (80 binary)
Coefficient statistics:
  Matrix range     [8e-04, 1e+00]
  Objective range  [4e-37, 5e-03]
  QObjective range [3e-06, 8e-05]
  Bounds range     [1e+00, 1e+00]
  RHS range        [2e+00, 2e+00]
Found heuristic solution: objective 23.4706873
Presolve removed 3321 rows and 3321 columns
Presolve time: 0.19s
Presolved: 6639 rows, 6639 columns, 85577 nonzeros
Presolved model has 62383 quadratic objective terms
Variable types: 6559 continuous, 80 integer (80 binary)
Warning: Markowitz tolerance tightened to 0.125
Warning: Markowitz tolerance tightened to 0.25

Root simplex log...

Iteration    Objective       Primal Inf.    Dual Inf.      Time
    7023    9.1060096e+00   0.000000e+00   5.694851e+02      5s
    7483    7.2525998e+00   0.000000e+00   0.000000e+00      6s

Root relaxation: objective 7.252600e+00, 7483 iterations, 5.92 seconds

    Nodes    |    Current Node    |     Objective Bounds      |     Work
 Expl Unexpl |  Obj  Depth IntInf | Incumbent    BestBd   Gap | It/Node Time

     0     0    7.25260    0   80   23.47069    7.25260  69.1%     -    6s
     0     0    7.28156    0   80   23.47069    7.28156  69.0%     -    7s
H    0     0                      12.1233039    7.28156  39.9%     -    8s
     0     0    7.31128    0   80   12.12330    7.31128  39.7%     -    9s
     0     0    7.35088    0   80   12.12330    7.35088  39.4%     -   10s
     0     0    7.44789    0   80   12.12330    7.44789  38.6%     -   11s
     0     0    7.46490    0   80   12.12330    7.46490  38.4%     -   12s
     0     0    7.48901    0   80   12.12330    7.48901  38.2%     -   13s
     0     0    7.49811    0   80   12.12330    7.49811  38.2%     -   14s
     0     0    7.51315    0   80   12.12330    7.51315  38.0%     -   16s
     0     0    7.51938    0   80   12.12330    7.51938  38.0%     -   17s
     0     0    7.53480    0   80   12.12330    7.53480  37.8%     -   18s
     0     0    7.53489    0   80   12.12330    7.53489  37.8%     -   19s
     0     0    7.54566    0   80   12.12330    7.54566  37.8%     -   21s
     0     0    7.55943    0   80   12.12330    7.55943  37.6%     -   22s
     0     0    7.58340    0   80   12.12330    7.58340  37.4%     -   24s
     0     0    7.59759    0   80   12.12330    7.59759  37.3%     -   25s
     0     0    7.62459    0   80   12.12330    7.62459  37.1%     -   27s
     0     0    7.63507    0   80   12.12330    7.63507  37.0%     -   28s
     0     0    7.66438    0   80   12.12330    7.66438  36.8%     -   30s
     0     0    7.69695    0   80   12.12330    7.69695  36.5%     -   33s
     0     0    7.71080    0   80   12.12330    7.71080  36.4%     -   35s
     0     0    7.72910    0   80   12.12330    7.72910  36.2%     -   36s
     0     0    7.74639    0   80   12.12330    7.74639  36.1%     -   37s
     0     0    7.77029    0   80   12.12330    7.77029  35.9%     -   39s
     0     0    7.77373    0   80   12.12330    7.77373  35.9%     -   41s
     0     0    7.79027    0   80   12.12330    7.79027  35.7%     -   42s
     0     0    7.80960    0   80   12.12330    7.80960  35.6%     -   44s
     0     0    7.82593    0   80   12.12330    7.82593  35.4%     -   45s
     0     0    7.83525    0   80   12.12330    7.83525  35.4%     -   47s
     0     0    7.83566    0   80   12.12330    7.83566  35.4%     -   49s
     0     0    7.84417    0   80   12.12330    7.84417  35.3%     -   50s
     0     0    7.84518    0   80   12.12330    7.84518  35.3%     -   52s
     0     0    7.86058    0   80   12.12330    7.86058  35.2%     -   53s
     0     0    7.86761    0   80   12.12330    7.86761  35.1%     -   56s
     0     0    7.87357    0   80   12.12330    7.87357  35.1%     -   59s
     0     0    7.94514    0   80   12.12330    7.94514  34.5%     -   60s
     0     0    7.95718    0   80   12.12330    7.95718  34.4%     -   63s
     0     0    7.95811    0   80   12.12330    7.95811  34.4%     -   65s
     0     0    7.97251    0   80   12.12330    7.97251  34.2%     -   67s
     0     0    7.98938    0   80   12.12330    7.98938  34.1%     -   68s
     0     0    7.99276    0   80   12.12330    7.99276  34.1%     -   70s
     0     0    8.00421    0   80   12.12330    8.00421  34.0%     -   72s
     0     0    8.01130    0   80   12.12330    8.01130  33.9%     -   75s
     0     0    8.01153    0   80   12.12330    8.01153  33.9%     -   77s
     0     0    8.02266    0   80   12.12330    8.02266  33.8%     -   79s
     0     0    8.02285    0   80   12.12330    8.02285  33.8%     -   80s
     0     0    8.04643    0   80   12.12330    8.04643  33.6%     -   82s
     0     0    8.05188    0   80   12.12330    8.05188  33.6%     -   84s
     0     0    8.06617    0   80   12.12330    8.06617  33.5%     -   86s
     0     0    8.06638    0   80   12.12330    8.06638  33.5%     -   88s
     0     0    8.09285    0   80   12.12330    8.09285  33.2%     -   90s
     0     0    8.09545    0   80   12.12330    8.09545  33.2%     -   92s
     0     0    8.10667    0   80   12.12330    8.10667  33.1%     -   95s
     0     0    8.11366    0   80   12.12330    8.11366  33.1%     -   97s
     0     0    8.11387    0   80   12.12330    8.11387  33.1%     -  100s
     0     0    8.11889    0   80   12.12330    8.11889  33.0%     -  103s
     0     0    8.12043    0   80   12.12330    8.12043  33.0%     -  105s
     0     0    8.12939    0   80   12.12330    8.12939  32.9%     -  107s
     0     0    8.13297    0   80   12.12330    8.13297  32.9%     -  109s
     0     0    8.14146    0   80   12.12330    8.14146  32.8%     -  111s
     0     0    8.14151    0   80   12.12330    8.14151  32.8%     -  113s
     0     0    8.16043    0   80   12.12330    8.16043  32.7%     -  115s
     0     0    8.17846    0   80   12.12330    8.17846  32.5%     -  117s
     0     0    8.17850    0   80   12.12330    8.17850  32.5%     -  120s
     0     0    8.19013    0   80   12.12330    8.19013  32.4%     -  122s
     0     0    8.19333    0   80   12.12330    8.19333  32.4%     -  124s
     0     0    8.22488    0   80   12.12330    8.22488  32.2%     -  126s
     0     0    8.24320    0   80   12.12330    8.24320  32.0%     -  129s
     0     0    8.24608    0   80   12.12330    8.24608  32.0%     -  130s
     0     0    8.26480    0   80   12.12330    8.26480  31.8%     -  133s
     0     0    8.27581    0   80   12.12330    8.27581  31.7%     -  136s
     0     0    8.27584    0   80   12.12330    8.27584  31.7%     -  138s
     0     0    8.29371    0   80   12.12330    8.29371  31.6%     -  140s
     0     0    8.30181    0   80   12.12330    8.30181  31.5%     -  142s
     0     0    8.32776    0   80   12.12330    8.32776  31.3%     -  144s
     0     0    8.32827    0   80   12.12330    8.32827  31.3%     -  146s
     0     0    8.33907    0   80   12.12330    8.33907  31.2%     -  149s
     0     0    8.34423    0   80   12.12330    8.34423  31.2%     -  151s
     0     0    8.34427    0   80   12.12330    8.34427  31.2%     -  154s
     0     0    8.35349    0   80   12.12330    8.35349  31.1%     -  157s
     0     0    8.35606    0   80   12.12330    8.35606  31.1%     -  159s
     0     0    8.36564    0   80   12.12330    8.36564  31.0%     -  162s
     0     0    8.36578    0   80   12.12330    8.36578  31.0%     -  164s
     0     0    8.37889    0   80   12.12330    8.37889  30.9%     -  166s
     0     0    8.37991    0   80   12.12330    8.37991  30.9%     -  168s
     0     0    8.40033    0   80   12.12330    8.40033  30.7%     -  170s
     0     0    8.40086    0   80   12.12330    8.40086  30.7%     -  172s
     0     0    8.41976    0   80   12.12330    8.41976  30.5%     -  173s
     0     0    8.42574    0   80   12.12330    8.42574  30.5%     -  176s
     0     0    8.43066    0   80   12.12330    8.43066  30.5%     -  179s
     0     0    8.44880    0   80   12.12330    8.44880  30.3%     -  181s
     0     0    8.44888    0   80   12.12330    8.44888  30.3%     -  184s
     0     0    8.45480    0   80   12.12330    8.45480  30.3%     -  186s
     0     0    8.45939    0   80   12.12330    8.45939  30.2%     -  189s
     0     0    8.46194    0   80   12.12330    8.46194  30.2%     -  192s
     0     0    8.46206    0   80   12.12330    8.46206  30.2%     -  194s
     0     0    8.46545    0   80   12.12330    8.46545  30.2%     -  197s
     0     0    8.46842    0   80   12.12330    8.46842  30.1%     -  200s
     0     0    8.47328    0   80   12.12330    8.47328  30.1%     -  202s
     0     0    8.48001    0   80   12.12330    8.48001  30.1%     -  205s
     0     0    8.48327    0   80   12.12330    8.48327  30.0%     -  208s
     0     0    8.48485    0   80   12.12330    8.48485  30.0%     -  211s
     0     0    8.48745    0   80   12.12330    8.48745  30.0%     -  214s
     0     0    8.48813    0   80   12.12330    8.48813  30.0%     -  217s
     0     0    8.49058    0   80   12.12330    8.49058  30.0%     -  219s
     0     0    8.49172    0   80   12.12330    8.49172  30.0%     -  222s
     0     0    8.49722    0   80   12.12330    8.49722  29.9%     -  224s
     0     0    8.49811    0   80   12.12330    8.49811  29.9%     -  227s
     0     0    8.49813    0   80   12.12330    8.49813  29.9%     -  230s
     0     0    8.50524    0   80   12.12330    8.50524  29.8%     -  232s
     0     0    8.50700    0   80   12.12330    8.50700  29.8%     -  235s
     0     0    8.53371    0   80   12.12330    8.53371  29.6%     -  237s
     0     0    8.56440    0   80   12.12330    8.56440  29.4%     -  240s
     0     0    8.57093    0   80   12.12330    8.57093  29.3%     -  243s
     0     0    8.57103    0   80   12.12330    8.57103  29.3%     -  244s
     0     0    8.57996    0   80   12.12330    8.57996  29.2%     -  247s
     0     0    8.58041    0   80   12.12330    8.58041  29.2%     -  249s
     0     0    8.58046    0   80   12.12330    8.58046  29.2%     -  252s
     0     0    8.58908    0   80   12.12330    8.58908  29.2%     -  253s
     0     0    8.58961    0   80   12.12330    8.58961  29.1%     -  256s
     0     0    8.58976    0   80   12.12330    8.58976  29.1%     -  257s
     0     0    8.59796    0   80   12.12330    8.59796  29.1%     -  259s
     0     0    8.60239    0   80   12.12330    8.60239  29.0%     -  262s
     0     0    8.60241    0   80   12.12330    8.60241  29.0%     -  264s
     0     0    8.60754    0   80   12.12330    8.60754  29.0%     -  266s
     0     0    8.61389    0   80   12.12330    8.61389  28.9%     -  268s
     0     0    8.62386    0   80   12.12330    8.62386  28.9%     -  270s
     0     0    8.62437    0   80   12.12330    8.62437  28.9%     -  273s
     0     0    8.63007    0   80   12.12330    8.63007  28.8%     -  276s
     0     0    8.63615    0   80   12.12330    8.63615  28.8%     -  278s
     0     0    8.63640    0   80   12.12330    8.63640  28.8%     -  281s
     0     0    8.64226    0   80   12.12330    8.64226  28.7%     -  284s
     0     0    8.64367    0   80   12.12330    8.64367  28.7%     -  289s
     0     0    8.65423    0   80   12.12330    8.65423  28.6%     -  290s
     0     0    8.65440    0   80   12.12330    8.65440  28.6%     -  293s
     0     0    8.65985    0   80   12.12330    8.65985  28.6%     -  295s
     0     0    8.66035    0   80   12.12330    8.66035  28.6%     -  298s
     0     0    8.66038    0   80   12.12330    8.66038  28.6%     -  301s
     0     0    8.66684    0   80   12.12330    8.66684  28.5%     -  302s
     0     0    8.66700    0   80   12.12330    8.66700  28.5%     -  305s
     0     0    8.67555    0   80   12.12330    8.67555  28.4%     -  309s
     0     0    8.67589    0   80   12.12330    8.67589  28.4%     -  312s
     0     0    8.68878    0   80   12.12330    8.68878  28.3%     -  314s
     0     0    8.69495    0   80   12.12330    8.69495  28.3%     -  317s
     0     0    8.70327    0   80   12.12330    8.70327  28.2%     -  319s
     0     0    8.70332    0   80   12.12330    8.70332  28.2%     -  323s
     0     0    8.70840    0   80   12.12330    8.70840  28.2%     -  325s
     0     0    8.70883    0   80   12.12330    8.70883  28.2%     -  327s
     0     0    8.71509    0   80   12.12330    8.71509  28.1%     -  329s
     0     0    8.71652    0   80   12.12330    8.71652  28.1%     -  332s
     0     0    8.72721    0   80   12.12330    8.72721  28.0%     -  335s
     0     0    8.72737    0   80   12.12330    8.72737  28.0%     -  338s
     0     0    8.73343    0   80   12.12330    8.73343  28.0%     -  340s
     0     0    8.73346    0   80   12.12330    8.73346  28.0%     -  344s
     0     0    8.74231    0   80   12.12330    8.74231  27.9%     -  346s
     0     0    8.74794    0   80   12.12330    8.74794  27.8%     -  350s
     0     0    8.75624    0   80   12.12330    8.75624  27.8%     -  353s
     0     0    8.75734    0   80   12.12330    8.75734  27.8%     -  355s
     0     0    8.75778    0   80   12.12330    8.75778  27.8%     -  357s
     0     0    8.75781    0   80   12.12330    8.75781  27.8%     -  359s
     0     0    8.77420    0   80   12.12330    8.77420  27.6%     -  361s
     0     0    8.78334    0   80   12.12330    8.78334  27.5%     -  364s
     0     0    8.78336    0   80   12.12330    8.78336  27.5%     -  365s
     0     0    8.78920    0   80   12.12330    8.78920  27.5%     -  367s
     0     0    8.78938    0   80   12.12330    8.78938  27.5%     -  370s
     0     0    8.79643    0   80   12.12330    8.79643  27.4%     -  371s
     0     0    8.79850    0   80   12.12330    8.79850  27.4%     -  373s
     0     0    8.79881    0   80   12.12330    8.79881  27.4%     -  375s
     0     0    8.80693    0   80   12.12330    8.80693  27.4%     -  378s
     0     0    8.81052    0   80   12.12330    8.81052  27.3%     -  381s
     0     0    8.81054    0   80   12.12330    8.81054  27.3%     -  384s
     0     0    8.81691    0   80   12.12330    8.81691  27.3%     -  388s
     0     0    8.82426    0   80   12.12330    8.82426  27.2%     -  390s
     0     0    8.82428    0   80   12.12330    8.82428  27.2%     -  392s
     0     0    8.83003    0   80   12.12330    8.83003  27.2%     -  394s
     0     0    8.83011    0   80   12.12330    8.83011  27.2%     -  399s
     0     0    8.83499    0   80   12.12330    8.83499  27.1%     -  402s
     0     0    8.83509    0   80   12.12330    8.83509  27.1%     -  403s
     0     0    8.83769    0   80   12.12330    8.83769  27.1%     -  405s
     0     0    8.83769    0   80   12.12330    8.83769  27.1%     -  406s
     0     0    8.83967    0   80   12.12330    8.83967  27.1%     -  407s
     0     2    8.83975    0   80   12.12330    8.83975  27.1%     -  455s
*   16     9              16      12.0956304   10.52327  13.0%  26.8  459s
    17     8     cutoff   14        12.09563   10.52327  13.0%  26.0  460s
    26     1     cutoff   11        12.09563   12.06687  0.24%  30.6  465s

Cutting planes:
  Network: 71

Explored 28 nodes (11693 simplex iterations) in 465.19 seconds
Thread count was 1 (of 24 available processors)

Solution count 3: 12.0956 12.1233 23.4707 

Optimal solution found (tolerance 1.00e-04)
Best objective 1.209563041482e+01, best bound 1.209563041482e+01, gap 0.0000%
